;test regex ^[13-9]{4}[1346-9][13-9]{5}$
(declare-const X String)
(assert (str.in_re X (re.++ (re.++ (str.to_re "") (re.++ ((_ re.loop 4 4) (re.range "13" "9")) (re.++ (re.range "1346" "9") ((_ re.loop 5 5) (re.range "13" "9"))))) (str.to_re ""))))
; sanitize danger characters:  < > ' " &
(assert (not (str.in_re X (re.++ re.all (re.union (str.to_re "\u{3c}") (str.to_re "\u{3e}") (str.to_re "\u{27}") (str.to_re "\u{22}") (str.to_re "\u{26}")) re.all))))
(assert (< 9 (str.len X)))
(check-sat)
(get-model)